c CNF file generated from BLIF2CNF script.
c Original BLIF file was -
p cnf 211 612
-1 -3 0
3 1  0
-3 2 0
-2 3  0
-4 -6 0
6 4  0
-6 5 0
-5 6  0
-7 -9 0
9 7  0
-9 8 0
-8 9  0
-10 -12 0
12 10  0
-12 11 0
-11 12  0
-13 -15 0
15 13  0
-15 14 0
-14 15  0
-16 -18 0
18 16  0
-18 17 0
-17 18  0
-19 -21 0
21 19  0
-21 20 0
-20 21  0
-22 -24 0
24 22  0
-24 23 0
-23 24  0
-25 -27 0
27 25  0
-27 26 0
-26 27  0
-28 -30 0
30 28  0
-30 29 0
-29 30  0
-31 -33 0
33 31  0
-33 32 0
-32 33  0
-34 -36 0
36 34  0
-36 35 0
-35 36  0
-37 -39 0
39 37  0
-39 38 0
-38 39  0
-40 -42 0
42 40  0
-42 41 0
-41 42  0
-43 -45 0
45 43  0
-45 44 0
-44 45  0
-46 -48 0
48 46  0
-48 47 0
-47 48  0
-49 -51 0
51 49  0
-51 50 0
-50 51  0
52 -55 0
53 -55 0
54 -55 0
55 -52 -53 -54  0
-55 1 0
-52 -56 0
-53 -56 0
54 -56 0
56 52 53 -54  0
-56 1 0
-52 -57 0
53 -57 0
-54 -57 0
57 52 -53 54  0
-57 1 0
52 -58 0
-53 -58 0
-54 -58 0
58 -52 53 54  0
-58 1 0
-1 55 56 57 58  0
59 -62 0
60 -62 0
61 -62 0
62 -59 -60 -61  0
-62 4 0
-59 -63 0
-60 -63 0
61 -63 0
63 59 60 -61  0
-63 4 0
-59 -64 0
60 -64 0
-61 -64 0
64 59 -60 61  0
-64 4 0
59 -65 0
-60 -65 0
-61 -65 0
65 -59 60 61  0
-65 4 0
-4 62 63 64 65  0
66 -69 0
67 -69 0
68 -69 0
69 -66 -67 -68  0
-69 7 0
-66 -70 0
-67 -70 0
68 -70 0
70 66 67 -68  0
-70 7 0
-66 -71 0
67 -71 0
-68 -71 0
71 66 -67 68  0
-71 7 0
66 -72 0
-67 -72 0
-68 -72 0
72 -66 67 68  0
-72 7 0
-7 69 70 71 72  0
73 -76 0
74 -76 0
75 -76 0
76 -73 -74 -75  0
-76 10 0
-73 -77 0
-74 -77 0
75 -77 0
77 73 74 -75  0
-77 10 0
-73 -78 0
74 -78 0
-75 -78 0
78 73 -74 75  0
-78 10 0
73 -79 0
-74 -79 0
-75 -79 0
79 -73 74 75  0
-79 10 0
-10 76 77 78 79  0
80 -83 0
81 -83 0
82 -83 0
83 -80 -81 -82  0
-83 13 0
-80 -84 0
-81 -84 0
82 -84 0
84 80 81 -82  0
-84 13 0
-80 -85 0
81 -85 0
-82 -85 0
85 80 -81 82  0
-85 13 0
80 -86 0
-81 -86 0
-82 -86 0
86 -80 81 82  0
-86 13 0
-13 83 84 85 86  0
87 -90 0
88 -90 0
89 -90 0
90 -87 -88 -89  0
-90 16 0
-87 -91 0
-88 -91 0
89 -91 0
91 87 88 -89  0
-91 16 0
-87 -92 0
88 -92 0
-89 -92 0
92 87 -88 89  0
-92 16 0
87 -93 0
-88 -93 0
-89 -93 0
93 -87 88 89  0
-93 16 0
-16 90 91 92 93  0
94 -97 0
95 -97 0
96 -97 0
97 -94 -95 -96  0
-97 19 0
-94 -98 0
-95 -98 0
96 -98 0
98 94 95 -96  0
-98 19 0
-94 -99 0
95 -99 0
-96 -99 0
99 94 -95 96  0
-99 19 0
94 -100 0
-95 -100 0
-96 -100 0
100 -94 95 96  0
-100 19 0
-19 97 98 99 100  0
101 -104 0
102 -104 0
103 -104 0
104 -101 -102 -103  0
-104 22 0
-101 -105 0
-102 -105 0
103 -105 0
105 101 102 -103  0
-105 22 0
-101 -106 0
102 -106 0
-103 -106 0
106 101 -102 103  0
-106 22 0
101 -107 0
-102 -107 0
-103 -107 0
107 -101 102 103  0
-107 22 0
-22 104 105 106 107  0
108 -111 0
109 -111 0
110 -111 0
111 -108 -109 -110  0
-111 25 0
-108 -112 0
-109 -112 0
110 -112 0
112 108 109 -110  0
-112 25 0
-108 -113 0
109 -113 0
-110 -113 0
113 108 -109 110  0
-113 25 0
108 -114 0
-109 -114 0
-110 -114 0
114 -108 109 110  0
-114 25 0
-25 111 112 113 114  0
115 -118 0
116 -118 0
117 -118 0
118 -115 -116 -117  0
-118 28 0
-115 -119 0
-116 -119 0
117 -119 0
119 115 116 -117  0
-119 28 0
-115 -120 0
116 -120 0
-117 -120 0
120 115 -116 117  0
-120 28 0
115 -121 0
-116 -121 0
-117 -121 0
121 -115 116 117  0
-121 28 0
-28 118 119 120 121  0
122 -125 0
123 -125 0
124 -125 0
125 -122 -123 -124  0
-125 31 0
-122 -126 0
-123 -126 0
124 -126 0
126 122 123 -124  0
-126 31 0
-122 -127 0
123 -127 0
-124 -127 0
127 122 -123 124  0
-127 31 0
122 -128 0
-123 -128 0
-124 -128 0
128 -122 123 124  0
-128 31 0
-31 125 126 127 128  0
129 -132 0
130 -132 0
131 -132 0
132 -129 -130 -131  0
-132 34 0
-129 -133 0
-130 -133 0
131 -133 0
133 129 130 -131  0
-133 34 0
-129 -134 0
130 -134 0
-131 -134 0
134 129 -130 131  0
-134 34 0
129 -135 0
-130 -135 0
-131 -135 0
135 -129 130 131  0
-135 34 0
-34 132 133 134 135  0
136 -139 0
137 -139 0
138 -139 0
139 -136 -137 -138  0
-139 37 0
-136 -140 0
-137 -140 0
138 -140 0
140 136 137 -138  0
-140 37 0
-136 -141 0
137 -141 0
-138 -141 0
141 136 -137 138  0
-141 37 0
136 -142 0
-137 -142 0
-138 -142 0
142 -136 137 138  0
-142 37 0
-37 139 140 141 142  0
143 -146 0
144 -146 0
145 -146 0
146 -143 -144 -145  0
-146 40 0
-143 -147 0
-144 -147 0
145 -147 0
147 143 144 -145  0
-147 40 0
-143 -148 0
144 -148 0
-145 -148 0
148 143 -144 145  0
-148 40 0
143 -149 0
-144 -149 0
-145 -149 0
149 -143 144 145  0
-149 40 0
-40 146 147 148 149  0
150 -153 0
151 -153 0
152 -153 0
153 -150 -151 -152  0
-153 43 0
-150 -154 0
-151 -154 0
152 -154 0
154 150 151 -152  0
-154 43 0
-150 -155 0
151 -155 0
-152 -155 0
155 150 -151 152  0
-155 43 0
150 -156 0
-151 -156 0
-152 -156 0
156 -150 151 152  0
-156 43 0
-43 153 154 155 156  0
-157 -160 0
158 -160 0
159 -160 0
160 157 -158 -159  0
-160 46 0
157 -161 0
-158 -161 0
159 -161 0
161 -157 158 -159  0
-161 46 0
157 -162 0
158 -162 0
-159 -162 0
162 -157 -158 159  0
-162 46 0
-157 -163 0
-158 -163 0
-159 -163 0
163 157 158 159  0
-163 46 0
-46 160 161 162 163  0
-52 -164 0
-53 -164 0
164 52 53  0
-164 49 0
-52 -165 0
54 -165 0
165 52 -54  0
-165 49 0
-53 -166 0
54 -166 0
166 53 -54  0
-166 49 0
-49 164 165 166  0
-157 -167 0
-158 -167 0
167 157 158  0
-167 152 0
-157 -168 0
-159 -168 0
168 157 159  0
-168 152 0
-158 -169 0
-159 -169 0
169 158 159  0
-169 152 0
-152 167 168 169  0
-150 -170 0
-151 -170 0
170 150 151  0
-170 145 0
-150 -171 0
152 -171 0
171 150 -152  0
-171 145 0
-151 -172 0
152 -172 0
172 151 -152  0
-172 145 0
-145 170 171 172  0
-143 -173 0
-144 -173 0
173 143 144  0
-173 138 0
-143 -174 0
145 -174 0
174 143 -145  0
-174 138 0
-144 -175 0
145 -175 0
175 144 -145  0
-175 138 0
-138 173 174 175  0
-136 -176 0
-137 -176 0
176 136 137  0
-176 131 0
-136 -177 0
138 -177 0
177 136 -138  0
-177 131 0
-137 -178 0
138 -178 0
178 137 -138  0
-178 131 0
-131 176 177 178  0
-129 -179 0
-130 -179 0
179 129 130  0
-179 124 0
-129 -180 0
131 -180 0
180 129 -131  0
-180 124 0
-130 -181 0
131 -181 0
181 130 -131  0
-181 124 0
-124 179 180 181  0
-122 -182 0
-123 -182 0
182 122 123  0
-182 117 0
-122 -183 0
124 -183 0
183 122 -124  0
-183 117 0
-123 -184 0
124 -184 0
184 123 -124  0
-184 117 0
-117 182 183 184  0
-115 -185 0
-116 -185 0
185 115 116  0
-185 110 0
-115 -186 0
117 -186 0
186 115 -117  0
-186 110 0
-116 -187 0
117 -187 0
187 116 -117  0
-187 110 0
-110 185 186 187  0
-108 -188 0
-109 -188 0
188 108 109  0
-188 103 0
-108 -189 0
110 -189 0
189 108 -110  0
-189 103 0
-109 -190 0
110 -190 0
190 109 -110  0
-190 103 0
-103 188 189 190  0
-101 -191 0
-102 -191 0
191 101 102  0
-191 96 0
-101 -192 0
103 -192 0
192 101 -103  0
-192 96 0
-102 -193 0
103 -193 0
193 102 -103  0
-193 96 0
-96 191 192 193  0
-94 -194 0
-95 -194 0
194 94 95  0
-194 89 0
-94 -195 0
96 -195 0
195 94 -96  0
-195 89 0
-95 -196 0
96 -196 0
196 95 -96  0
-196 89 0
-89 194 195 196  0
-87 -197 0
-88 -197 0
197 87 88  0
-197 82 0
-87 -198 0
89 -198 0
198 87 -89  0
-198 82 0
-88 -199 0
89 -199 0
199 88 -89  0
-199 82 0
-82 197 198 199  0
-80 -200 0
-81 -200 0
200 80 81  0
-200 75 0
-80 -201 0
82 -201 0
201 80 -82  0
-201 75 0
-81 -202 0
82 -202 0
202 81 -82  0
-202 75 0
-75 200 201 202  0
-73 -203 0
-74 -203 0
203 73 74  0
-203 68 0
-73 -204 0
75 -204 0
204 73 -75  0
-204 68 0
-74 -205 0
75 -205 0
205 74 -75  0
-205 68 0
-68 203 204 205  0
-66 -206 0
-67 -206 0
206 66 67  0
-206 61 0
-66 -207 0
68 -207 0
207 66 -68  0
-207 61 0
-67 -208 0
68 -208 0
208 67 -68  0
-208 61 0
-61 206 207 208  0
-59 -209 0
-60 -209 0
209 59 60  0
-209 54 0
-59 -210 0
61 -210 0
210 59 -61  0
-210 54 0
-60 -211 0
61 -211 0
211 60 -61  0
-211 54 0
-54 209 210 211  0
